20
10
574571
0
0
46 47 48 47 44 45 43 46 48 41
1
0
41 46 45 45 43 43 41 46 45 42
2
0
41 36 41 38 38 36 36 40 41 36
3
0
46 47 45 46 48 48 46 45 47 42
4
0
53 51 51 51 52 58 53 54 51 53
5
0
52 51 52 53 55 52 54 56 50 52
6
0
67 69 70 64 65 69 68 64 67 65
7
0
57 53 56 58 53 56 58 56 54 56
8
0
41 44 45 43 39 43 42 43 42 39
9
0
31 33 33 34 31 32 30 32 33 32
10
0
40 39 38 41 40 39 37 39 40 40
11
0
44 47 46 48 44 44 47 47 47 44
12
0
61 64 66 66 63 64 62 62 61 60
13
0
49 55 55 51 52 47 56 52 49 50
14
0
39 40 39 41 41 43 39 41 41 41
15
0
55 56 56 56 56 57 55 53 55 58
16
0
44 42 42 41 44 47 39 42 45 43
17
0
45 48 49 50 48 48 52 47 48 48
18
0
48 50 54 49 48 52 48 48 52 47
19
0
58 62 57 60 63 58 60 58 62 60
